Mo S                                    
   1.00000000000000     
     1.5961189270000000   -2.7645590764999999    0.0000000000000000
     1.5961189270000000    2.7645590764999999    0.0000000000000000
     0.0000000000000000    0.0000000000000000   13.3782939910999996
   Mo   S 
     2     4
Direct
  0.6666666670000012  0.3333333329999988  0.2500000000000000
  0.3333333329999988  0.6666666670000012  0.7500000000000000
  0.6666666670000012  0.3333333329999988  0.6330820000000017
  0.0318952181404200  0.8080550696138928  0.3986413801378674
  0.6666666670000012  0.3333333329999988  0.8669179999999983
  0.3333333329999988  0.6666666670000012  0.1330820000000017
 
  0.00000000E+00  0.00000000E+00  0.00000000E+00
  0.00000000E+00  0.00000000E+00  0.00000000E+00
  0.00000000E+00  0.00000000E+00  0.00000000E+00
  0.00000000E+00  0.00000000E+00  0.00000000E+00
  0.00000000E+00  0.00000000E+00  0.00000000E+00
  0.00000000E+00  0.00000000E+00  0.00000000E+00
